lbl,CUST NO.,READY TIME,XCOORD.,YCOORD.,DEMAND,DUE DATE,SERVICE TIME
7,166,0,27,77,10,1218,90
7,144,0,32,77,20,1223,90
7,53,0,34,82,10,1224,90
7,101,35,35,76,10,91,90
7,119,188,28,74,20,260,90
7,35,380,25,80,20,440,90
7,126,479,28,78,10,529,90
7,71,561,30,79,20,632,90
7,9,655,32,79,20,721,90
7,1,750,33,78,20,809,90
7,99,841,34,79,10,902,90
